
  32    1
  10

   0   0  12 2 3 4 5 6 7 8 9 10 11 12 31 
   2   1   8 29 27 26 18 17 16 15 13 
   8   1   7 28 26 20 19 18 17 16 
  10   2   5 26 25 22 20 14 
   4   1   8 29 28 27 26 25 24 23 22 
   7   2   7 30 29 27 26 25 24 19 
   6   1   4 24 18 17 13 
  10   1   6 27 26 24 22 21 17 
   2   3   5 29 27 23 20 19 
   8   2   3 26 18 15 
  10   2   4 26 25 21 17 
   1   4   4 25 22 21 17 
   8   1   4 25 23 22 21 
   5   3   4 27 24 23 21 
   6   2   3 28 24 22 
   8   5   3 25 24 21 
   9   3   1 23 
   5   3   1 21 
   7   3   1 22 
   8   2   1 21 
   1   2   1 32
   9   3   1 32
   9   2   1 32
   1   1   1 32
  10   4   1 32
   6   1   1 32
   3   1   1 32
   4   1   1 32
   5   1   1 32
   7   1   1 32
  10   1   1 32
   0   0   0 
